100 6232
1134 162 1296 810 208 1040 312 208 832 1458 1296 104 832 624 832 936 486 1296 208 832 324 312 832 208 1134 1134 648 1296 728 936 810 936 1040 416 810 1134 208 810 324 486 1296 1134 486 728 1620 1620 162 832 972 810 416 1458 1296 648 972 832 162 1040 624 1134 208 1040 832 520 1620 624 1134 208 832 416 832 486 520 810 1040 1458 936 728 624 324 810 728 1040 832 208 104 104 1458 728 324 936 208 624 728 208 162 486 312 1458 104 
994 142 1136 710 168 840 252 168 672 1278 1136 84 672 504 672 756 426 1136 168 672 284 252 672 168 994 994 568 1136 588 756 710 756 840 336 710 994 168 710 284 426 1136 994 426 588 1420 1420 142 672 852 710 336 1278 1136 568 852 672 142 840 504 994 168 840 672 420 1420 504 994 168 672 336 672 426 420 710 840 1278 756 588 504 284 710 588 840 672 168 84 84 1278 588 284 756 168 504 588 168 142 426 252 1278 84 
